100010101000111001000111110001100010001111010001010101101000101111001011011100001111101001010110010011111000000001101010100011010001110000101011111101010100011001011100010101111101011101111011011010111110011011101010001000100100000100000101110100100101111111101000001000000101101001111100000011001100010000010011100100110011111100011001000001010111010101101010100101100101000110000010000010001001000101111000111111101101110001001100001010100000001010100011111001010011000101111011100001001011110000100001111110110001110010011010001010000100100100000101010011110110101101110011110001110010110100111111100101110000011101010011000111110000100000101101110111111001000011001011011111101101111100100100010000100100100000111111000101110101011101111011010011100111010101100001